; benchmark generated from python API
(set-info :status unknown)
(declare-fun x_epoch () Int)
(declare-fun y_epoch () Int)
(declare-fun x_plus_epoch () Int)
(declare-fun x_plus_month () Int)
(declare-fun x_plus_year () Int)
(declare-fun x_plus_day () Int)
(assert
 (>= x_epoch (- 36584)))
(assert
 (<= x_epoch 36829))
(assert
 (>= y_epoch (- 36584)))
(assert
 (<= y_epoch 36829))
(assert
 (= x_epoch 8371))
(assert
 (>= x_plus_epoch (- 36584)))
(assert
 (<= x_plus_epoch 36829))
(assert
 (let (($x358 (= x_plus_month 11)))
 (let (($x408 (= x_plus_month 9)))
 (let (($x233 (= x_plus_month 6)))
 (let (($x354 (= x_plus_month 4)))
 (let ((?x845 (ite (or $x354 $x233 $x408 $x358) 30 31)))
 (let (($x657 (= (mod x_plus_year 400) 0)))
 (let (($x2166 (= (mod x_plus_year 4) 0)))
 (let (($x776 (or (and $x2166 (and (distinct (mod x_plus_year 100) 0) true)) $x657)))
 (let (($x3150 (= x_plus_month 2)))
 (let (($x227 (>= x_plus_day 1)))
 (let (($x1358 (<= x_plus_month 12)))
 (let (($x205 (>= x_plus_month 1)))
 (let (($x315 (<= x_plus_year 2100)))
 (let (($x126 (>= x_plus_year 1900)))
 (and $x126 $x315 $x205 $x1358 $x227 (<= x_plus_day (ite $x3150 (ite $x776 29 28) ?x845))))))))))))))))))
(assert
 (let (($x29 (or (and (= (mod 2000 4) 0) (and (distinct (mod 2000 100) 0) true)) (= (mod 2000 400) 0))))
 (let ((?x36 (ite (= 3 2) (ite $x29 31 31) (ite (= 3 1) (ite $x29 0 0) 0))))
 (let ((?x40 (ite $x29 60 59)))
 (let ((?x41 (ite (= 3 3) ?x40 ?x36)))
 (let ((?x46 (ite (= 3 4) (ite $x29 91 90) ?x41)))
 (let ((?x52 (ite (= 3 5) (ite $x29 121 120) ?x46)))
 (let ((?x58 (ite (= 3 6) (ite $x29 152 151) ?x52)))
 (let ((?x64 (ite (= 3 7) (ite $x29 182 181) ?x58)))
 (let ((?x70 (ite (= 3 8) (ite $x29 213 212) ?x64)))
 (let ((?x76 (ite (= 3 9) (ite $x29 244 243) ?x70)))
 (let ((?x82 (ite (= 3 10) (ite $x29 274 273) ?x76)))
 (let ((?x88 (ite (= 3 11) (ite $x29 305 304) ?x82)))
 (let ((?x16 (- (+ (* 365 (- 2000 1)) (div (- 2000 1) 4)) (div (- 2000 1) 100))))
 (let ((?x95 (+ (+ ?x16 (div (- 2000 1) 400)) (ite (= 3 12) (ite $x29 335 334) ?x88))))
 (let ((?x97 (+ ?x95 (- 1 1))))
 (let (($x657 (= (mod x_plus_year 400) 0)))
 (let (($x2166 (= (mod x_plus_year 4) 0)))
 (let (($x776 (or (and $x2166 (and (distinct (mod x_plus_year 100) 0) true)) $x657)))
 (let (($x618 (= 2 x_plus_month)))
 (let ((?x287 (ite $x618 (ite $x776 31 31) (ite (= 1 x_plus_month) (ite $x776 0 0) 0))))
 (let (($x146 (= 3 x_plus_month)))
 (let (($x867 (= 4 x_plus_month)))
 (let ((?x177 (ite $x867 (ite $x776 91 90) (ite $x146 (ite $x776 60 59) ?x287))))
 (let (($x226 (= 5 x_plus_month)))
 (let (($x433 (= 6 x_plus_month)))
 (let ((?x323 (ite $x433 (ite $x776 152 151) (ite $x226 (ite $x776 121 120) ?x177))))
 (let (($x490 (= 7 x_plus_month)))
 (let (($x223 (= 8 x_plus_month)))
 (let ((?x781 (ite $x223 (ite $x776 213 212) (ite $x490 (ite $x776 182 181) ?x323))))
 (let (($x300 (= 9 x_plus_month)))
 (let (($x327 (= 10 x_plus_month)))
 (let ((?x708 (ite $x327 (ite $x776 274 273) (ite $x300 (ite $x776 244 243) ?x781))))
 (let (($x340 (= 11 x_plus_month)))
 (let (($x311 (= 12 x_plus_month)))
 (let ((?x828 (ite $x311 (ite $x776 335 334) (ite $x340 (ite $x776 305 304) ?x708))))
 (let ((?x224 (+ (* 365 (- x_plus_year 1)) (div (- x_plus_year 1) 4))))
 (let ((?x349 (+ (- ?x224 (div (- x_plus_year 1) 100)) (div (- x_plus_year 1) 400))))
 (= x_plus_epoch (- (+ (+ ?x349 ?x828) (- x_plus_day 1)) ?x97))))))))))))))))))))))))))))))))))))))))
(assert
 (let (($x29 (or (and (= (mod 2000 4) 0) (and (distinct (mod 2000 100) 0) true)) (= (mod 2000 400) 0))))
 (let ((?x36 (ite (= 3 2) (ite $x29 31 31) (ite (= 3 1) (ite $x29 0 0) 0))))
 (let ((?x40 (ite $x29 60 59)))
 (let ((?x41 (ite (= 3 3) ?x40 ?x36)))
 (let ((?x46 (ite (= 3 4) (ite $x29 91 90) ?x41)))
 (let ((?x52 (ite (= 3 5) (ite $x29 121 120) ?x46)))
 (let ((?x58 (ite (= 3 6) (ite $x29 152 151) ?x52)))
 (let ((?x64 (ite (= 3 7) (ite $x29 182 181) ?x58)))
 (let ((?x70 (ite (= 3 8) (ite $x29 213 212) ?x64)))
 (let ((?x76 (ite (= 3 9) (ite $x29 244 243) ?x70)))
 (let ((?x82 (ite (= 3 10) (ite $x29 274 273) ?x76)))
 (let ((?x88 (ite (= 3 11) (ite $x29 305 304) ?x82)))
 (let ((?x16 (- (+ (* 365 (- 2000 1)) (div (- 2000 1) 4)) (div (- 2000 1) 100))))
 (let ((?x95 (+ (+ ?x16 (div (- 2000 1) 400)) (ite (= 3 12) (ite $x29 335 334) ?x88))))
 (let ((?x97 (+ ?x95 (- 1 1))))
 (let ((?x2924 (+ x_epoch ?x97)))
 (let ((?x727 (mod ?x2924 146097)))
 (let ((?x1551 (div ?x727 36524)))
 (let ((?x829 (ite (<= 4 ?x1551) 3 ?x1551)))
 (let ((?x661 (- ?x727 (* ?x829 36524))))
 (let ((?x522 (mod ?x661 1461)))
 (let ((?x268 (div ?x522 365)))
 (let ((?x530 (ite (<= 4 ?x268) 3 ?x268)))
 (let ((?x2487 (+ (+ (* (div ?x2924 146097) 400) (* ?x829 100)) (* (div ?x661 1461) 4))))
 (let ((?x2561 (+ (+ ?x2487 ?x530) 1)))
 (let (($x506 (or (and (= (mod ?x2561 4) 0) (and (distinct (mod ?x2561 100) 0) true)) (= (mod ?x2561 400) 0))))
 (let ((?x1830 (- ?x522 (* ?x530 365))))
 (let ((?x1481 (ite $x506 31 31)))
 (let (($x843 (>= ?x1830 ?x1481)))
 (let ((?x2703 (ite $x843 (+ (- ?x1830 ?x1481) 1) (+ (- ?x1830 (ite $x506 0 0)) 1))))
 (let ((?x1769 (ite $x506 60 59)))
 (let (($x696 (>= ?x1830 ?x1769)))
 (let ((?x1628 (ite $x506 91 90)))
 (let (($x110 (>= ?x1830 ?x1628)))
 (let ((?x487 (ite $x110 (+ (- ?x1830 ?x1628) 1) (ite $x696 (+ (- ?x1830 ?x1769) 1) ?x2703))))
 (let ((?x3177 (ite $x506 121 120)))
 (let (($x3167 (>= ?x1830 ?x3177)))
 (let ((?x2961 (ite $x506 152 151)))
 (let (($x2853 (>= ?x1830 ?x2961)))
 (let ((?x366 (ite $x2853 (+ (- ?x1830 ?x2961) 1) (ite $x3167 (+ (- ?x1830 ?x3177) 1) ?x487))))
 (let ((?x112 (ite $x506 182 181)))
 (let (($x2284 (>= ?x1830 ?x112)))
 (let ((?x3086 (ite $x506 213 212)))
 (let (($x795 (>= ?x1830 ?x3086)))
 (let ((?x1316 (ite $x795 (+ (- ?x1830 ?x3086) 1) (ite $x2284 (+ (- ?x1830 ?x112) 1) ?x366))))
 (let ((?x2707 (ite $x506 244 243)))
 (let (($x1828 (>= ?x1830 ?x2707)))
 (let ((?x1221 (ite $x506 274 273)))
 (let (($x1528 (>= ?x1830 ?x1221)))
 (let ((?x2530 (ite $x1528 (+ (- ?x1830 ?x1221) 1) (ite $x1828 (+ (- ?x1830 ?x2707) 1) ?x1316))))
 (let ((?x415 (ite $x506 305 304)))
 (let (($x3340 (>= ?x1830 ?x415)))
 (let ((?x629 (ite $x506 335 334)))
 (let (($x1422 (>= ?x1830 ?x629)))
 (let ((?x778 (ite $x1422 (+ (- ?x1830 ?x629) 1) (ite $x3340 (+ (- ?x1830 ?x415) 1) ?x2530))))
 (let ((?x432 (* 0 12)))
 (let ((?x2395 (+ ?x432 3)))
 (let ((?x2157 (ite $x3167 5 (ite $x110 4 (ite $x696 3 (ite $x843 2 1))))))
 (let ((?x2411 (ite $x1828 9 (ite $x795 8 (ite $x2284 7 (ite $x2853 6 ?x2157))))))
 (let ((?x2610 (ite $x1422 12 (ite $x3340 11 (ite $x1528 10 ?x2411)))))
 (let ((?x3064 (+ ?x2610 ?x2395)))
 (let ((?x1403 (- ?x3064 1)))
 (let ((?x3576 (+ (mod ?x1403 12) 1)))
 (let ((?x1330 (ite (or (= ?x3576 4) (= ?x3576 6) (= ?x3576 9) (= ?x3576 11)) 30 31)))
 (let (($x3726 (and (= (mod (+ ?x2561 (+ 0 (div ?x1403 12))) 4) 0) (and (distinct (mod (+ ?x2561 (+ 0 (div ?x1403 12))) 100) 0) true))))
 (let (($x3729 (or $x3726 (= (mod (+ ?x2561 (+ 0 (div ?x1403 12))) 400) 0))))
 (let ((?x2208 (ite (= ?x3576 2) (ite $x3729 29 28) ?x1330)))
 (let (($x741 (> 1 ?x778)))
 (let ((?x2362 (ite $x741 1 (ite (> ?x778 ?x2208) ?x2208 ?x778))))
 (let ((?x2704 (ite (> 1 ?x2362) 1 (ite (> ?x2362 ?x2208) ?x2208 ?x2362))))
 (let ((?x3300 (ite (= 2 ?x3576) (ite $x3729 31 31) (ite (= 1 ?x3576) (ite $x3729 0 0) 0))))
 (let ((?x2451 (ite (= 4 ?x3576) (ite $x3729 91 90) (ite (= 3 ?x3576) (ite $x3729 60 59) ?x3300))))
 (let ((?x2731 (ite (= 6 ?x3576) (ite $x3729 152 151) (ite (= 5 ?x3576) (ite $x3729 121 120) ?x2451))))
 (let ((?x837 (ite (= 8 ?x3576) (ite $x3729 213 212) (ite (= 7 ?x3576) (ite $x3729 182 181) ?x2731))))
 (let ((?x1177 (ite (= 10 ?x3576) (ite $x3729 274 273) (ite (= 9 ?x3576) (ite $x3729 244 243) ?x837))))
 (let ((?x3981 (ite (= 12 ?x3576) (ite $x3729 335 334) (ite (= 11 ?x3576) (ite $x3729 305 304) ?x1177))))
 (let ((?x2684 (+ (* 365 (- (+ ?x2561 (+ 0 (div ?x1403 12))) 1)) (div (- (+ ?x2561 (+ 0 (div ?x1403 12))) 1) 4))))
 (let ((?x1295 (+ (- ?x2684 (div (- (+ ?x2561 (+ 0 (div ?x1403 12))) 1) 100)) (div (- (+ ?x2561 (+ 0 (div ?x1403 12))) 1) 400))))
 (let ((?x1837 (+ (+ (- (+ (+ ?x1295 ?x3981) (- ?x2704 1)) ?x97) 0) ?x97)))
 (let ((?x3225 (mod ?x1837 146097)))
 (let ((?x2526 (div ?x3225 36524)))
 (let ((?x1537 (ite (<= 4 ?x2526) 3 ?x2526)))
 (let ((?x155 (- ?x3225 (* ?x1537 36524))))
 (let ((?x3609 (mod ?x155 1461)))
 (let ((?x3610 (div ?x3609 365)))
 (let ((?x3738 (ite (<= 4 ?x3610) 3 ?x3610)))
 (let ((?x3682 (+ (+ (* (div ?x1837 146097) 400) (* ?x1537 100)) (* (div ?x155 1461) 4))))
 (let ((?x3556 (+ (+ ?x3682 ?x3738) 1)))
 (let ((?x3575 (+ 0 (div ?x1403 12))))
 (let ((?x3577 (+ ?x2561 ?x3575)))
 (let (($x722 (= 0 0)))
 (let ((?x3860 (ite $x722 ?x3577 ?x3556)))
 (= x_plus_year ?x3860))))))))))))))))))))))))))))))))))))))))))))))))))))))))))))))))))))))))))))))))))))))))))))))
(assert
 (let (($x29 (or (and (= (mod 2000 4) 0) (and (distinct (mod 2000 100) 0) true)) (= (mod 2000 400) 0))))
 (let ((?x36 (ite (= 3 2) (ite $x29 31 31) (ite (= 3 1) (ite $x29 0 0) 0))))
 (let ((?x40 (ite $x29 60 59)))
 (let ((?x41 (ite (= 3 3) ?x40 ?x36)))
 (let ((?x46 (ite (= 3 4) (ite $x29 91 90) ?x41)))
 (let ((?x52 (ite (= 3 5) (ite $x29 121 120) ?x46)))
 (let ((?x58 (ite (= 3 6) (ite $x29 152 151) ?x52)))
 (let ((?x64 (ite (= 3 7) (ite $x29 182 181) ?x58)))
 (let ((?x70 (ite (= 3 8) (ite $x29 213 212) ?x64)))
 (let ((?x76 (ite (= 3 9) (ite $x29 244 243) ?x70)))
 (let ((?x82 (ite (= 3 10) (ite $x29 274 273) ?x76)))
 (let ((?x88 (ite (= 3 11) (ite $x29 305 304) ?x82)))
 (let ((?x16 (- (+ (* 365 (- 2000 1)) (div (- 2000 1) 4)) (div (- 2000 1) 100))))
 (let ((?x95 (+ (+ ?x16 (div (- 2000 1) 400)) (ite (= 3 12) (ite $x29 335 334) ?x88))))
 (let ((?x97 (+ ?x95 (- 1 1))))
 (let ((?x2924 (+ x_epoch ?x97)))
 (let ((?x727 (mod ?x2924 146097)))
 (let ((?x1551 (div ?x727 36524)))
 (let ((?x829 (ite (<= 4 ?x1551) 3 ?x1551)))
 (let ((?x661 (- ?x727 (* ?x829 36524))))
 (let ((?x522 (mod ?x661 1461)))
 (let ((?x268 (div ?x522 365)))
 (let ((?x530 (ite (<= 4 ?x268) 3 ?x268)))
 (let ((?x2487 (+ (+ (* (div ?x2924 146097) 400) (* ?x829 100)) (* (div ?x661 1461) 4))))
 (let ((?x2561 (+ (+ ?x2487 ?x530) 1)))
 (let (($x506 (or (and (= (mod ?x2561 4) 0) (and (distinct (mod ?x2561 100) 0) true)) (= (mod ?x2561 400) 0))))
 (let ((?x1830 (- ?x522 (* ?x530 365))))
 (let ((?x1481 (ite $x506 31 31)))
 (let (($x843 (>= ?x1830 ?x1481)))
 (let ((?x2703 (ite $x843 (+ (- ?x1830 ?x1481) 1) (+ (- ?x1830 (ite $x506 0 0)) 1))))
 (let ((?x1769 (ite $x506 60 59)))
 (let (($x696 (>= ?x1830 ?x1769)))
 (let ((?x1628 (ite $x506 91 90)))
 (let (($x110 (>= ?x1830 ?x1628)))
 (let ((?x487 (ite $x110 (+ (- ?x1830 ?x1628) 1) (ite $x696 (+ (- ?x1830 ?x1769) 1) ?x2703))))
 (let ((?x3177 (ite $x506 121 120)))
 (let (($x3167 (>= ?x1830 ?x3177)))
 (let ((?x2961 (ite $x506 152 151)))
 (let (($x2853 (>= ?x1830 ?x2961)))
 (let ((?x366 (ite $x2853 (+ (- ?x1830 ?x2961) 1) (ite $x3167 (+ (- ?x1830 ?x3177) 1) ?x487))))
 (let ((?x112 (ite $x506 182 181)))
 (let (($x2284 (>= ?x1830 ?x112)))
 (let ((?x3086 (ite $x506 213 212)))
 (let (($x795 (>= ?x1830 ?x3086)))
 (let ((?x1316 (ite $x795 (+ (- ?x1830 ?x3086) 1) (ite $x2284 (+ (- ?x1830 ?x112) 1) ?x366))))
 (let ((?x2707 (ite $x506 244 243)))
 (let (($x1828 (>= ?x1830 ?x2707)))
 (let ((?x1221 (ite $x506 274 273)))
 (let (($x1528 (>= ?x1830 ?x1221)))
 (let ((?x2530 (ite $x1528 (+ (- ?x1830 ?x1221) 1) (ite $x1828 (+ (- ?x1830 ?x2707) 1) ?x1316))))
 (let ((?x415 (ite $x506 305 304)))
 (let (($x3340 (>= ?x1830 ?x415)))
 (let ((?x629 (ite $x506 335 334)))
 (let (($x1422 (>= ?x1830 ?x629)))
 (let ((?x778 (ite $x1422 (+ (- ?x1830 ?x629) 1) (ite $x3340 (+ (- ?x1830 ?x415) 1) ?x2530))))
 (let ((?x432 (* 0 12)))
 (let ((?x2395 (+ ?x432 3)))
 (let ((?x2157 (ite $x3167 5 (ite $x110 4 (ite $x696 3 (ite $x843 2 1))))))
 (let ((?x2411 (ite $x1828 9 (ite $x795 8 (ite $x2284 7 (ite $x2853 6 ?x2157))))))
 (let ((?x2610 (ite $x1422 12 (ite $x3340 11 (ite $x1528 10 ?x2411)))))
 (let ((?x3064 (+ ?x2610 ?x2395)))
 (let ((?x1403 (- ?x3064 1)))
 (let ((?x3576 (+ (mod ?x1403 12) 1)))
 (let ((?x1330 (ite (or (= ?x3576 4) (= ?x3576 6) (= ?x3576 9) (= ?x3576 11)) 30 31)))
 (let (($x3726 (and (= (mod (+ ?x2561 (+ 0 (div ?x1403 12))) 4) 0) (and (distinct (mod (+ ?x2561 (+ 0 (div ?x1403 12))) 100) 0) true))))
 (let (($x3729 (or $x3726 (= (mod (+ ?x2561 (+ 0 (div ?x1403 12))) 400) 0))))
 (let ((?x2208 (ite (= ?x3576 2) (ite $x3729 29 28) ?x1330)))
 (let (($x741 (> 1 ?x778)))
 (let ((?x2362 (ite $x741 1 (ite (> ?x778 ?x2208) ?x2208 ?x778))))
 (let ((?x2704 (ite (> 1 ?x2362) 1 (ite (> ?x2362 ?x2208) ?x2208 ?x2362))))
 (let ((?x3300 (ite (= 2 ?x3576) (ite $x3729 31 31) (ite (= 1 ?x3576) (ite $x3729 0 0) 0))))
 (let ((?x2451 (ite (= 4 ?x3576) (ite $x3729 91 90) (ite (= 3 ?x3576) (ite $x3729 60 59) ?x3300))))
 (let ((?x2731 (ite (= 6 ?x3576) (ite $x3729 152 151) (ite (= 5 ?x3576) (ite $x3729 121 120) ?x2451))))
 (let ((?x837 (ite (= 8 ?x3576) (ite $x3729 213 212) (ite (= 7 ?x3576) (ite $x3729 182 181) ?x2731))))
 (let ((?x1177 (ite (= 10 ?x3576) (ite $x3729 274 273) (ite (= 9 ?x3576) (ite $x3729 244 243) ?x837))))
 (let ((?x3981 (ite (= 12 ?x3576) (ite $x3729 335 334) (ite (= 11 ?x3576) (ite $x3729 305 304) ?x1177))))
 (let ((?x2684 (+ (* 365 (- (+ ?x2561 (+ 0 (div ?x1403 12))) 1)) (div (- (+ ?x2561 (+ 0 (div ?x1403 12))) 1) 4))))
 (let ((?x1295 (+ (- ?x2684 (div (- (+ ?x2561 (+ 0 (div ?x1403 12))) 1) 100)) (div (- (+ ?x2561 (+ 0 (div ?x1403 12))) 1) 400))))
 (let ((?x1837 (+ (+ (- (+ (+ ?x1295 ?x3981) (- ?x2704 1)) ?x97) 0) ?x97)))
 (let ((?x3225 (mod ?x1837 146097)))
 (let ((?x2526 (div ?x3225 36524)))
 (let ((?x1537 (ite (<= 4 ?x2526) 3 ?x2526)))
 (let ((?x155 (- ?x3225 (* ?x1537 36524))))
 (let ((?x3609 (mod ?x155 1461)))
 (let ((?x3610 (div ?x3609 365)))
 (let ((?x3738 (ite (<= 4 ?x3610) 3 ?x3610)))
 (let ((?x3682 (+ (+ (* (div ?x1837 146097) 400) (* ?x1537 100)) (* (div ?x155 1461) 4))))
 (let ((?x3556 (+ (+ ?x3682 ?x3738) 1)))
 (let (($x3870 (or (and (= (mod ?x3556 4) 0) (and (distinct (mod ?x3556 100) 0) true)) (= (mod ?x3556 400) 0))))
 (let ((?x3872 (ite $x3870 31 31)))
 (let ((?x3740 (- ?x3609 (* ?x3738 365))))
 (let (($x1615 (>= ?x3740 ?x3872)))
 (let ((?x2906 (ite $x3870 60 59)))
 (let (($x3597 (>= ?x3740 ?x2906)))
 (let ((?x2591 (ite $x3870 91 90)))
 (let (($x3599 (>= ?x3740 ?x2591)))
 (let ((?x1073 (ite $x3870 121 120)))
 (let (($x2479 (>= ?x3740 ?x1073)))
 (let ((?x1482 (ite $x2479 5 (ite $x3599 4 (ite $x3597 3 (ite $x1615 2 1))))))
 (let ((?x531 (ite $x3870 152 151)))
 (let (($x2034 (>= ?x3740 ?x531)))
 (let ((?x3845 (ite $x3870 182 181)))
 (let (($x3893 (>= ?x3740 ?x3845)))
 (let ((?x3846 (ite $x3870 213 212)))
 (let (($x3895 (>= ?x3740 ?x3846)))
 (let ((?x3847 (ite $x3870 244 243)))
 (let (($x947 (>= ?x3740 ?x3847)))
 (let ((?x2778 (ite $x947 9 (ite $x3895 8 (ite $x3893 7 (ite $x2034 6 ?x1482))))))
 (let ((?x3848 (ite $x3870 274 273)))
 (let (($x181 (>= ?x3740 ?x3848)))
 (let ((?x1901 (ite $x3870 305 304)))
 (let (($x2851 (>= ?x3740 ?x1901)))
 (let ((?x1908 (ite $x3870 335 334)))
 (let (($x2634 (>= ?x3740 ?x1908)))
 (let (($x722 (= 0 0)))
 (let ((?x3968 (ite $x722 ?x3576 (ite $x2634 12 (ite $x2851 11 (ite $x181 10 ?x2778))))))
 (= x_plus_month ?x3968))))))))))))))))))))))))))))))))))))))))))))))))))))))))))))))))))))))))))))))))))))))))))))))))))))))))))))))))))))))
(assert
 (let (($x29 (or (and (= (mod 2000 4) 0) (and (distinct (mod 2000 100) 0) true)) (= (mod 2000 400) 0))))
 (let ((?x36 (ite (= 3 2) (ite $x29 31 31) (ite (= 3 1) (ite $x29 0 0) 0))))
 (let ((?x40 (ite $x29 60 59)))
 (let ((?x41 (ite (= 3 3) ?x40 ?x36)))
 (let ((?x46 (ite (= 3 4) (ite $x29 91 90) ?x41)))
 (let ((?x52 (ite (= 3 5) (ite $x29 121 120) ?x46)))
 (let ((?x58 (ite (= 3 6) (ite $x29 152 151) ?x52)))
 (let ((?x64 (ite (= 3 7) (ite $x29 182 181) ?x58)))
 (let ((?x70 (ite (= 3 8) (ite $x29 213 212) ?x64)))
 (let ((?x76 (ite (= 3 9) (ite $x29 244 243) ?x70)))
 (let ((?x82 (ite (= 3 10) (ite $x29 274 273) ?x76)))
 (let ((?x88 (ite (= 3 11) (ite $x29 305 304) ?x82)))
 (let ((?x16 (- (+ (* 365 (- 2000 1)) (div (- 2000 1) 4)) (div (- 2000 1) 100))))
 (let ((?x95 (+ (+ ?x16 (div (- 2000 1) 400)) (ite (= 3 12) (ite $x29 335 334) ?x88))))
 (let ((?x97 (+ ?x95 (- 1 1))))
 (let ((?x2924 (+ x_epoch ?x97)))
 (let ((?x727 (mod ?x2924 146097)))
 (let ((?x1551 (div ?x727 36524)))
 (let ((?x829 (ite (<= 4 ?x1551) 3 ?x1551)))
 (let ((?x661 (- ?x727 (* ?x829 36524))))
 (let ((?x522 (mod ?x661 1461)))
 (let ((?x268 (div ?x522 365)))
 (let ((?x530 (ite (<= 4 ?x268) 3 ?x268)))
 (let ((?x2487 (+ (+ (* (div ?x2924 146097) 400) (* ?x829 100)) (* (div ?x661 1461) 4))))
 (let ((?x2561 (+ (+ ?x2487 ?x530) 1)))
 (let (($x506 (or (and (= (mod ?x2561 4) 0) (and (distinct (mod ?x2561 100) 0) true)) (= (mod ?x2561 400) 0))))
 (let ((?x1830 (- ?x522 (* ?x530 365))))
 (let ((?x1481 (ite $x506 31 31)))
 (let (($x843 (>= ?x1830 ?x1481)))
 (let ((?x2703 (ite $x843 (+ (- ?x1830 ?x1481) 1) (+ (- ?x1830 (ite $x506 0 0)) 1))))
 (let ((?x1769 (ite $x506 60 59)))
 (let (($x696 (>= ?x1830 ?x1769)))
 (let ((?x1628 (ite $x506 91 90)))
 (let (($x110 (>= ?x1830 ?x1628)))
 (let ((?x487 (ite $x110 (+ (- ?x1830 ?x1628) 1) (ite $x696 (+ (- ?x1830 ?x1769) 1) ?x2703))))
 (let ((?x3177 (ite $x506 121 120)))
 (let (($x3167 (>= ?x1830 ?x3177)))
 (let ((?x2961 (ite $x506 152 151)))
 (let (($x2853 (>= ?x1830 ?x2961)))
 (let ((?x366 (ite $x2853 (+ (- ?x1830 ?x2961) 1) (ite $x3167 (+ (- ?x1830 ?x3177) 1) ?x487))))
 (let ((?x112 (ite $x506 182 181)))
 (let (($x2284 (>= ?x1830 ?x112)))
 (let ((?x3086 (ite $x506 213 212)))
 (let (($x795 (>= ?x1830 ?x3086)))
 (let ((?x1316 (ite $x795 (+ (- ?x1830 ?x3086) 1) (ite $x2284 (+ (- ?x1830 ?x112) 1) ?x366))))
 (let ((?x2707 (ite $x506 244 243)))
 (let (($x1828 (>= ?x1830 ?x2707)))
 (let ((?x1221 (ite $x506 274 273)))
 (let (($x1528 (>= ?x1830 ?x1221)))
 (let ((?x2530 (ite $x1528 (+ (- ?x1830 ?x1221) 1) (ite $x1828 (+ (- ?x1830 ?x2707) 1) ?x1316))))
 (let ((?x415 (ite $x506 305 304)))
 (let (($x3340 (>= ?x1830 ?x415)))
 (let ((?x629 (ite $x506 335 334)))
 (let (($x1422 (>= ?x1830 ?x629)))
 (let ((?x778 (ite $x1422 (+ (- ?x1830 ?x629) 1) (ite $x3340 (+ (- ?x1830 ?x415) 1) ?x2530))))
 (let ((?x432 (* 0 12)))
 (let ((?x2395 (+ ?x432 3)))
 (let ((?x2157 (ite $x3167 5 (ite $x110 4 (ite $x696 3 (ite $x843 2 1))))))
 (let ((?x2411 (ite $x1828 9 (ite $x795 8 (ite $x2284 7 (ite $x2853 6 ?x2157))))))
 (let ((?x2610 (ite $x1422 12 (ite $x3340 11 (ite $x1528 10 ?x2411)))))
 (let ((?x3064 (+ ?x2610 ?x2395)))
 (let ((?x1403 (- ?x3064 1)))
 (let ((?x3576 (+ (mod ?x1403 12) 1)))
 (let ((?x1330 (ite (or (= ?x3576 4) (= ?x3576 6) (= ?x3576 9) (= ?x3576 11)) 30 31)))
 (let (($x3726 (and (= (mod (+ ?x2561 (+ 0 (div ?x1403 12))) 4) 0) (and (distinct (mod (+ ?x2561 (+ 0 (div ?x1403 12))) 100) 0) true))))
 (let (($x3729 (or $x3726 (= (mod (+ ?x2561 (+ 0 (div ?x1403 12))) 400) 0))))
 (let ((?x2208 (ite (= ?x3576 2) (ite $x3729 29 28) ?x1330)))
 (let (($x741 (> 1 ?x778)))
 (let ((?x2362 (ite $x741 1 (ite (> ?x778 ?x2208) ?x2208 ?x778))))
 (let ((?x2704 (ite (> 1 ?x2362) 1 (ite (> ?x2362 ?x2208) ?x2208 ?x2362))))
 (let ((?x3300 (ite (= 2 ?x3576) (ite $x3729 31 31) (ite (= 1 ?x3576) (ite $x3729 0 0) 0))))
 (let ((?x2451 (ite (= 4 ?x3576) (ite $x3729 91 90) (ite (= 3 ?x3576) (ite $x3729 60 59) ?x3300))))
 (let ((?x2731 (ite (= 6 ?x3576) (ite $x3729 152 151) (ite (= 5 ?x3576) (ite $x3729 121 120) ?x2451))))
 (let ((?x837 (ite (= 8 ?x3576) (ite $x3729 213 212) (ite (= 7 ?x3576) (ite $x3729 182 181) ?x2731))))
 (let ((?x1177 (ite (= 10 ?x3576) (ite $x3729 274 273) (ite (= 9 ?x3576) (ite $x3729 244 243) ?x837))))
 (let ((?x3981 (ite (= 12 ?x3576) (ite $x3729 335 334) (ite (= 11 ?x3576) (ite $x3729 305 304) ?x1177))))
 (let ((?x2684 (+ (* 365 (- (+ ?x2561 (+ 0 (div ?x1403 12))) 1)) (div (- (+ ?x2561 (+ 0 (div ?x1403 12))) 1) 4))))
 (let ((?x1295 (+ (- ?x2684 (div (- (+ ?x2561 (+ 0 (div ?x1403 12))) 1) 100)) (div (- (+ ?x2561 (+ 0 (div ?x1403 12))) 1) 400))))
 (let ((?x1837 (+ (+ (- (+ (+ ?x1295 ?x3981) (- ?x2704 1)) ?x97) 0) ?x97)))
 (let ((?x3225 (mod ?x1837 146097)))
 (let ((?x2526 (div ?x3225 36524)))
 (let ((?x1537 (ite (<= 4 ?x2526) 3 ?x2526)))
 (let ((?x155 (- ?x3225 (* ?x1537 36524))))
 (let ((?x3609 (mod ?x155 1461)))
 (let ((?x3610 (div ?x3609 365)))
 (let ((?x3738 (ite (<= 4 ?x3610) 3 ?x3610)))
 (let ((?x3682 (+ (+ (* (div ?x1837 146097) 400) (* ?x1537 100)) (* (div ?x155 1461) 4))))
 (let ((?x3556 (+ (+ ?x3682 ?x3738) 1)))
 (let (($x3870 (or (and (= (mod ?x3556 4) 0) (and (distinct (mod ?x3556 100) 0) true)) (= (mod ?x3556 400) 0))))
 (let ((?x3740 (- ?x3609 (* ?x3738 365))))
 (let ((?x3872 (ite $x3870 31 31)))
 (let (($x1615 (>= ?x3740 ?x3872)))
 (let ((?x3170 (ite $x1615 (+ (- ?x3740 ?x3872) 1) (+ (- ?x3740 (ite $x3870 0 0)) 1))))
 (let ((?x2906 (ite $x3870 60 59)))
 (let (($x3597 (>= ?x3740 ?x2906)))
 (let ((?x2591 (ite $x3870 91 90)))
 (let (($x3599 (>= ?x3740 ?x2591)))
 (let ((?x3153 (ite $x3599 (+ (- ?x3740 ?x2591) 1) (ite $x3597 (+ (- ?x3740 ?x2906) 1) ?x3170))))
 (let ((?x1073 (ite $x3870 121 120)))
 (let (($x2479 (>= ?x3740 ?x1073)))
 (let ((?x531 (ite $x3870 152 151)))
 (let (($x2034 (>= ?x3740 ?x531)))
 (let ((?x1533 (ite $x2034 (+ (- ?x3740 ?x531) 1) (ite $x2479 (+ (- ?x3740 ?x1073) 1) ?x3153))))
 (let ((?x3845 (ite $x3870 182 181)))
 (let (($x3893 (>= ?x3740 ?x3845)))
 (let ((?x3846 (ite $x3870 213 212)))
 (let (($x3895 (>= ?x3740 ?x3846)))
 (let ((?x2798 (ite $x3895 (+ (- ?x3740 ?x3846) 1) (ite $x3893 (+ (- ?x3740 ?x3845) 1) ?x1533))))
 (let ((?x3847 (ite $x3870 244 243)))
 (let (($x947 (>= ?x3740 ?x3847)))
 (let ((?x3848 (ite $x3870 274 273)))
 (let (($x181 (>= ?x3740 ?x3848)))
 (let ((?x3643 (ite $x181 (+ (- ?x3740 ?x3848) 1) (ite $x947 (+ (- ?x3740 ?x3847) 1) ?x2798))))
 (let ((?x1901 (ite $x3870 305 304)))
 (let (($x2851 (>= ?x3740 ?x1901)))
 (let ((?x1908 (ite $x3870 335 334)))
 (let (($x2634 (>= ?x3740 ?x1908)))
 (let ((?x3859 (ite $x2634 (+ (- ?x3740 ?x1908) 1) (ite $x2851 (+ (- ?x3740 ?x1901) 1) ?x3643))))
 (let (($x722 (= 0 0)))
 (let ((?x3969 (ite $x722 ?x2704 ?x3859)))
 (= x_plus_day ?x3969))))))))))))))))))))))))))))))))))))))))))))))))))))))))))))))))))))))))))))))))))))))))))))))))))))))))))))))))))))))))))
(assert
 (= y_epoch x_plus_epoch))
(assert
 (= y_epoch 8460))
(check-sat)
